60
705
4
56
51
91
67
0 4
0 5
0 17
0 18
0 19
0 20
0 23
0 24
0 25
0 26
0 29
0 33
0 34
0 37
0 40
0 43
0 46
0 48
0 49
0 50
0 51
0 52
0 56
0 59
1 5
1 7
1 9
1 11
1 13
1 14
1 23
1 27
1 30
1 32
1 33
1 36
1 41
1 42
1 43
1 45
1 48
1 49
1 50
1 52
1 54
1 55
1 57
1 58
2 6
2 11
2 12
2 17
2 18
2 21
2 23
2 26
2 30
2 31
2 32
2 38
2 39
2 40
2 41
2 42
2 45
2 50
2 56
2 59
3 5
3 9
3 11
3 12
3 13
3 17
3 18
3 19
3 20
3 24
3 25
3 28
3 31
3 35
3 36
3 37
3 38
3 40
3 52
4 7
4 8
4 18
4 23
4 24
4 25
4 29
4 30
4 34
4 35
4 39
4 45
4 48
4 52
4 53
4 56
4 57
5 9
5 11
5 12
5 15
5 16
5 18
5 20
5 23
5 24
5 25
5 26
5 27
5 32
5 33
5 35
5 36
5 37
5 39
5 40
5 41
5 42
5 43
5 44
5 46
5 48
5 52
5 54
5 55
6 8
6 10
6 13
6 17
6 18
6 19
6 20
6 23
6 26
6 28
6 29
6 31
6 34
6 35
6 36
6 37
6 38
6 41
6 42
6 43
6 44
6 47
6 49
6 52
6 53
6 59
7 9
7 10
7 13
7 16
7 18
7 22
7 23
7 24
7 25
7 26
7 27
7 35
7 46
7 49
7 50
7 54
7 56
7 58
7 59
8 11
8 12
8 15
8 23
8 24
8 26
8 27
8 29
8 31
8 35
8 36
8 41
8 43
8 46
8 47
8 48
8 49
8 50
8 53
8 59
9 10
9 12
9 13
9 16
9 17
9 18
9 20
9 23
9 25
9 26
9 32
9 36
9 37
9 41
9 44
9 53
9 59
10 11
10 17
10 23
10 31
10 32
10 33
10 34
10 36
10 39
10 43
10 45
10 46
10 47
10 48
10 55
10 56
10 58
10 59
11 14
11 15
11 16
11 18
11 19
11 20
11 21
11 27
11 33
11 36
11 37
11 38
11 39
11 45
11 49
11 50
11 52
11 59
12 13
12 14
12 15
12 17
12 18
12 21
12 22
12 26
12 27
12 28
12 32
12 33
12 35
12 42
12 47
12 48
12 49
12 51
12 56
12 58
12 59
13 18
13 19
13 20
13 22
13 25
13 28
13 29
13 31
13 37
13 38
13 39
13 41
13 42
13 48
13 49
13 50
13 51
13 53
13 56
14 18
14 22
14 23
14 29
14 31
14 34
14 35
14 41
14 44
14 45
14 47
14 51
14 52
14 57
14 58
14 59
15 20
15 21
15 22
15 25
15 26
15 27
15 29
15 32
15 36
15 38
15 40
15 41
15 46
15 47
15 52
15 55
15 56
16 20
16 21
16 27
16 34
16 37
16 38
16 39
16 40
16 44
16 47
16 48
16 52
16 55
16 58
16 59
17 20
17 22
17 24
17 25
17 29
17 30
17 33
17 36
17 38
17 39
17 42
17 43
17 46
17 49
17 55
17 56
17 57
18 20
18 21
18 26
18 27
18 28
18 30
18 33
18 37
18 39
18 40
18 42
18 45
18 48
18 51
18 59
19 22
19 23
19 30
19 36
19 38
19 40
19 44
19 45
19 46
19 54
19 58
19 59
20 23
20 24
20 25
20 26
20 27
20 28
20 32
20 40
20 42
20 43
20 44
20 48
20 49
20 53
20 54
21 25
21 30
21 34
21 35
21 36
21 38
21 43
21 49
21 52
21 59
22 24
22 25
22 27
22 28
22 30
22 32
22 33
22 38
22 43
22 45
22 50
22 53
22 54
22 55
22 59
23 29
23 32
23 34
23 35
23 36
23 38
23 42
23 44
23 45
23 47
23 48
23 51
23 59
24 25
24 31
24 34
24 35
24 37
24 42
24 49
24 52
24 58
25 26
25 28
25 35
25 36
25 37
25 38
25 39
25 43
25 44
25 48
25 55
25 57
25 59
26 31
26 39
26 40
26 42
26 47
26 48
26 49
26 50
26 52
26 53
26 55
26 56
26 59
27 28
27 29
27 30
27 34
27 37
27 39
27 40
27 41
27 43
27 46
27 47
27 49
27 50
27 51
27 54
27 55
27 56
27 57
28 30
28 31
28 35
28 37
28 41
28 44
28 45
28 46
28 48
28 49
28 50
28 51
28 52
28 53
28 57
28 59
29 30
29 31
29 32
29 37
29 39
29 45
29 47
29 48
29 51
29 52
29 53
29 54
29 55
29 56
29 57
29 58
29 59
30 31
30 33
30 34
30 35
30 43
30 44
30 48
30 51
30 52
30 53
30 54
30 55
30 56
30 57
31 34
31 37
31 38
31 39
31 40
31 41
31 42
31 43
31 45
31 47
31 48
31 51
31 52
31 53
31 54
31 55
31 58
31 59
32 33
32 34
32 39
32 40
32 42
32 45
32 47
32 48
32 49
32 51
32 52
32 54
33 35
33 38
33 39
33 40
33 43
33 47
33 48
33 51
33 54
33 59
34 35
34 36
34 40
34 44
34 47
34 50
34 53
34 55
34 58
35 36
35 40
35 41
35 42
35 47
35 48
35 50
35 52
35 54
35 57
35 59
36 38
36 40
36 46
36 47
36 50
36 52
36 56
36 59
37 39
37 40
37 41
37 42
37 44
37 46
37 49
37 50
37 52
37 53
37 54
37 55
37 56
37 57
38 39
38 40
38 41
38 46
38 49
38 51
38 55
38 57
39 42
39 44
39 46
39 47
39 49
39 51
39 52
39 54
39 55
39 58
40 43
40 44
40 47
40 56
41 42
41 43
41 44
41 47
41 50
41 54
41 57
41 58
41 59
42 43
43 44
43 51
43 52
43 54
43 56
43 58
43 59
44 46
44 48
44 56
45 48
45 59
46 47
46 48
46 50
46 51
46 53
46 54
46 55
46 57
47 48
47 50
47 52
47 53
47 55
47 57
47 58
47 59
48 51
48 54
48 57
48 58
49 51
49 52
49 53
49 54
49 55
49 56
49 57
50 51
50 52
50 53
50 56
50 57
51 54
51 58
52 55
52 56
52 57
52 58
53 55
54 57
55 59
56 57
56 58
56 59
54 39 47 45 36 37 4 17 43 38 5 11 35 59 49
24 15 51 10 41 9 13 33 44 25 18 52 58 28 57
46 40 34 31 21 30 3 14 27 12 8 53 1 32 6
2 7 42 20 0 29 22 23 26 55 50 19 56 48 16
